c --- [ banner ] -------------------------------------------------------------
c 
c CaDiCaL Radically Simplified CDCL SAT Solver
c Copyright (c) 2016-2021 A. Biere, M. Fleury, N. Froleyks
c 
c Version 1.5.2 a5f15211db36c3956764e18194dd5bd63bf3b5e6
c g++ (GCC) 9.3.0 -Wall -Wextra -O3 -DNDEBUG
c Fri Oct 21 01:27:37 EDT 2022 Linux gra-login3 3.10.0-1160.66.1.el7.x86_64 x86_64
c 
c --- [ limit ] --------------------------------------------------------------
c 
c setting conflict limit to 200000 conflicts (due to '200000')
c 
c --- [ parsing input ] ------------------------------------------------------
c 
c reading DIMACS file from '33.cubes3067.adj'
c opening file to read '33.cubes3067.adj'
c found 'p cnf 6160 1595479' header
c parsed 1595479 clauses in 19.48 seconds process time
c closing file '33.cubes3067.adj'
c after reading 1457566805 bytes 1390.0 MB
c 
c --- [ options ] ------------------------------------------------------------
c 
c all options are set to their default value
c 
c --- [ solving ] ------------------------------------------------------------
c 
c time measured in process time since initialization
c 
c  seconds    reductions  redundant   irredundant
c          MB     restarts       trail       variables
c            level   conflicts       glue         remaining
c 
c * 19.48 1390  0 0   0    0    0  0% 0 1595422 2200 36%
c { 20.83 1446  0 0   0    0    0  0% 0 1595422 2200 36%
c i 21.25 1457 101 0   0   17   15 19% 3 1595422 2190 36%
c i 21.66 1468 191 0   0   23   20 23% 3 1595422 2189 36%
c i 21.72 1469 182 0   0   25   21 23% 3 1595422 2188 36%
c i 22.53 1498 220 0   1   41   35 25% 6 1595422 2155 35%
c i 25.24 1521 95 0   8  107   78 27% 5 1595422 2114 34%
c i 27.61 1533 71 0  31  202  161 28% 12 1595422 2098 34%
c i 28.73 1538 69 0  46  270  219 28% 17 1595422 2097 34%
c - 32.87 1489 64 1  55  303  245 29% 17 331094 2097 34%
c i 33.53 1378 45 1  64  575  465 30% 16 331094 2075 34%
c i 33.55 1378 46 1  65  580  467 30% 17 331094 2073 34%
c i 34.36 1379 45 1  77  636  512 30% 17 331094 2058 33%
c i 34.70 1379 41 1  83  740  580 30% 17 331094 2057 33%
c i 34.85 1379 41 1  89  757  593 30% 17 331094 2056 33%
c i 34.98 1379 40 1  89  780  613 30% 16 331094 2055 33%
c i 35.38 1379 38 1  89  884  698 30% 16 331094 2054 33%
c i 35.49 1379 37 1  89  938  727 30% 15 331094 2053 33%
c i 35.70 1379 35 1  89  991  767 30% 15 331094 2052 33%
c } 35.73 1379 35 1  89 1000  772 30% 15 331094 2052 33%
c 
c  seconds    reductions  redundant  irredundant
c          MB     restarts       trail      variables
c            level   conflicts       glue        remaining
c 
c [ 35.73 1379  0 1  89 1000  772  0% 0 331094 2052 33%
c O 35.78 1379 14 1  89 1002  774 27% 13 331094 2052 33%
c i 36.08 1379 15 1  89 1064  824 32% 9 331094 2051 33%
c - 36.76 1492 17 2  89 1214  846 31% 11 309456 2051 33%
c - 37.61 1492 19 3  90 2558 1291 31% 15 309456 2051 33%
c ] 38.01 1492 19 3  90 3001 1566 31% 14 309456 2051 33%
c { 38.01 1492 35 3  90 3001 1566 30% 15 309456 2051 33%
c F 38.20 1492 35 3  90 3005 1569  9% 15 309456 2051 33%
c i 38.25 1492 35 3  90 3007 1570 24% 15 309456 2050 33%
c i 38.34 1492 35 3  90 3016 1578 39% 15 309456 2049 33%
c i 38.96 1492 31 3 112 3370 1785 46% 15 309456 2048 33%
c i 39.24 1492 27 3 117 3767 2003 47% 14 309456 2047 33%
c i 39.41 1492 25 3 117 4242 2273 47% 14 309456 2046 33%
c i 39.41 1492 25 3 117 4243 2273 47% 14 309456 2045 33%
c - 39.92 1490 24 4 117 4346 1734 47% 13 309438 2045 33%
c i 40.15 1490 24 4 117 4446 1803 46% 13 309438 2044 33%
c i 40.55 1490 23 4 118 4794 2056 46% 13 309438 2043 33%
c d 41.63 1490 23 4 148 5000 2229 46% 13 309416 2035 33%
c p 44.85 1490 23 4 148 5000 7295 46% 13 309416 1931 31%
c d 45.31 1490 23 4 148 5000 6386 46% 13 308815 1925 31%
c 
c  seconds    reductions  redundant   irredundant
c          MB     restarts       trail       variables
c            level   conflicts       glue         remaining
c 
c # 47.08 1490 22 4 229 6007 6895 45% 13 308815 1925 31%
c - 48.16 1474 22 5 253 6583 2721 45% 13 308815 1925 31%
c } 48.29 1474 21 5 253 7002 3051 46% 13 308815 1925 31%
c [ 48.29 1474 19 5 253 7002 3051 94% 14 308815 1925 31%
c - 48.96 1380 19 6 255 9264 3154 69% 16 308815 1925 31%
c I 49.19 1380 19 6 255 10009 3604 66% 16 308815 1925 31%
c - 51.12 1380 23 7 257 12392 3644 59% 19 308815 1925 31%
c 2 53.91 1380 24 7 258 15001 6141 55% 20 308815 1925 31%
c p 56.48 1380 24 7 258 15001 9185 55% 20 308815 1925 31%
c ] 56.60 1380 24 7 258 15004 9187 55% 20 308815 1925 31%
c { 56.60 1380 21 7 258 15004 9187 46% 13 308815 1925 31%
c B 56.83 1380 21 7 259 15012 9194 46% 13 308815 1925 31%
c - 59.47 1381 22 8 371 15971 4518 45% 14 308815 1925 31%
c s 64.09 1381 19 8 465 19006 6032 45% 13 305376 1925 31%
c v 68.75 1381 19 8 465 19006 6032 45% 13 305344 1925 31%
c w 68.91 1381 19 8 465 19006 6022 45% 13 305344 1925 31%
c t 68.92 1381 19 8 465 19006 6010 45% 13 305334 1925 31%
c e 69.74 1382 19 8 465 19006 5614 45% 13 303436 648 11%
c s 69.86 1382 19 8 465 19006 5610 45% 13 296916 648 11%
c - 72.14 1382 18 9 488 19993 4341 68% 13 296916 648 11%
c 
c  seconds    reductions   redundant   irredundant
c          MB     restarts        trail       variables
c            level    conflicts       glue        remaining
c 
c W 75.34 1382 19 9 597 21014 5038 67% 13 296916 648 11%
c - 80.14 1382 18 10 747 24410 4916 66% 13 296916 648 11%
c i 81.52 1382 17 10 796 27544 6571 66% 12 296916 647 11%
c F 83.08 1382 17 10 863 28016 6900 66% 12 296916 647 11%
c - 86.24 1382 17 11 974 29269 5830 66% 12 296914 647 11%
c 2 86.89 1382 17 11 995 30002 6648 66% 13 296913 647 11%
c p 88.99 1382 17 11 995 30002 8213 66% 13 296913 647 11%
c } 91.60 1382 17 11 1079 31005 8827 66% 13 296913 647 11%
c [ 91.60 1382 24 11 1079 31005 8827 174% 20 296913 647 11%
c - 94.76 1382 22 12 1081 34570 6730 145% 18 296913 647 11%
c B 95.91 1382 21 12 1082 36020 7672 137% 18 296913 647 11%
c - 99.66 1382 22 13 1085 40315 7469 120% 19 296913 647 11%
c W 104.59 1382 22 13 1086 45022 10477 108% 19 296913 647 11%
c - 106.38 1382 22 14 1087 46500 7823 105% 19 296913 647 11%
c 3 109.17 1382 22 14 1087 50005 10181 100% 18 296913 647 11%
c p 112.28 1382 22 14 1087 50005 11984 100% 18 296913 646 10%
c d 112.50 1382 22 14 1087 50005 11971 100% 18 296908 645 10%
c - 115.17 1382 22 15 1087 53128 8441 96% 19 296908 645 10%
c s 115.97 1382 22 15 1087 54367 9228 95% 19 294038 645 10%
c v 119.47 1382 22 15 1087 54367 9228 95% 19 293994 645 10%
c 
c  seconds     reductions     redundant   irredundant
c           MB      restarts         trail       variables
c             level      conflicts       glue        remaining
c 
c t 119.64 1382 22 15 1087 54367 9221 95% 19 293991 645 10%
c e 120.43 1382 22 15 1087 54367 9197 95% 19 293984 638 10%
c s 120.60 1382 22 15 1087 54367 9196 95% 19 290764 638 10%
c O 122.14 1382 22 15 1088 55025 9529 95% 19 290764 638 10%
c - 124.35 1382 22 16 1092 60197 8323 90% 19 290764 638 10%
c ] 125.45 1382 22 16 1094 63006 10065 89% 19 290764 638 10%
c { 125.45 1382 17 16 1094 63006 10065 66% 13 290764 638 10%
c B 130.84 1382 17 16 1343 66027 11787 65% 13 290764 638 10%
c - 134.05 1382 17 17 1422 67661 8871 65% 12 290764 638 10%
c i 142.66 1382 16 17 1748 73939 12146 65% 12 290764 637 10%
c 3 146.09 1382 17 17 1915 75007 13301 65% 13 290764 637 10%
c p 148.28 1382 17 17 1915 75007 15056 65% 13 290764 637 10%
c - 150.18 1382 17 18 1960 75564 9300 65% 13 290761 637 10%
c W 153.69 1382 17 18 2052 78028 10766 65% 12 290761 637 10%
c - 158.64 1382 16 19 2389 83910 10317 66% 13 290761 637 10%
c # 167.39 1382 16 19 2749 91033 14423 66% 13 290761 637 10%
c - 169.99 1382 16 20 2808 92691 11146 66% 13 290761 637 10%
c - 176.72 1382 15 21 3089 101912 11518 66% 12 290761 637 10%
c p 181.50 1382 15 21 3251 105008 15531 66% 12 290761 637 10%
c B 181.87 1382 15 21 3251 105034 15549 66% 12 290761 637 10%
c 
c  seconds     reductions       redundant   irredundant
c           MB      restarts           trail       variables
c             level      conflicts         glue        remaining
c 
c s 184.89 1382 15 21 3340 107364 16717 66% 12 288506 637 10%
c v 190.06 1382 15 21 3340 107364 16717 66% 12 288460 637 10%
c w 190.39 1382 15 21 3340 107364 16695 66% 12 288460 637 10%
c t 190.40 1382 15 21 3340 107364 16682 66% 12 288460 637 10%
c s 191.40 1382 15 21 3340 107364 16680 66% 12 286278 637 10%
c - 197.29 1382 15 22 3591 111573 12893 66% 12 286278 637 10%
c W 208.32 1382 15 22 4099 120035 17457 66% 12 286278 637 10%
c - 210.68 1382 15 23 4128 121624 13562 66% 12 286278 637 10%
c } 214.89 1382 15 23 4305 127006 16240 66% 12 286278 637 10%
c [ 214.89 1382 22 23 4305 127006 16240 89% 19 286278 637 10%
c - 217.60 1382 22 24 4307 132113 14251 86% 19 286278 637 10%
c B 219.36 1382 22 24 4309 136037 16802 84% 19 286278 637 10%
c p 224.37 1382 22 24 4312 140011 21391 82% 19 286278 637 10%
c - 227.24 1382 22 25 4312 143039 15524 81% 19 286278 637 10%
c W 232.70 1382 23 25 4314 153039 21968 79% 20 286278 637 10%
c - 233.40 1382 23 26 4314 154402 16195 78% 20 286278 637 10%
c - 237.37 1382 24 27 4314 166202 17303 76% 21 286278 637 10%
c I 239.54 1382 24 27 4317 171040 20213 75% 21 286278 637 10%
c - 241.99 1382 24 28 4321 178439 16306 75% 21 286278 637 10%
c p 244.81 1382 24 28 4321 180012 19771 74% 21 286278 637 10%
c 
c  seconds     reductions       redundant   irredundant
c           MB      restarts           trail       variables
c             level      conflicts         glue        remaining
c 
c B 250.00 1382 24 28 4328 190041 25447 74% 21 286278 637 10%
c - 250.85 1382 24 29 4328 191115 16696 73% 21 286278 637 10%
c ] 252.24 1382 24 29 4329 194780 19182 73% 21 286278 637 10%
c 1 252.24 1382 24 29 4329 194780 19182 73% 21 286278 637 10%
c 
c --- [ writing output ] -----------------------------------------------------
c 
c writing simplified CNF to DIMACS file 'simp/33.cubes3067.adj.simp1'
c * 252.24 1382 24 29 4329 194780 19182 73% 21 286278 637 10%
c opening file to write 'simp/33.cubes3067.adj.simp1'
c writing 'p cnf 6160 286278' header
c closing file 'simp/33.cubes3067.adj.simp1'
c after writing 101416705 bytes 96.7 MB
c wrote 286278 clauses in 0.72 seconds process time
c 
c --- [ writing extension ] --------------------------------------------------
c 
c writing extension stack to 'simp/33.cubes3067.adj.ext1'
c opening file to write 'simp/33.cubes3067.adj.ext1'
c closing file 'simp/33.cubes3067.adj.ext1'
c after writing 85401 bytes 0.1 MB
c wrote 3938 witnesses in 0.00 seconds process time
c 
c --- [ result ] -------------------------------------------------------------
c 
s SATISFIABLE
c 
c --- [ run-time profiling ] -------------------------------------------------
c 
c process time taken by individual solving procedures
c (percentage relative to process time for solving)
c 
c       192.31   82.62% search
c       122.41   52.59% unstable
c        63.80   27.41% stable
c        40.45   17.38% simplify
c        19.48    8.37% parse
c        19.10    8.21% probe
c        13.91    5.98% vivify
c         4.75    2.04% walk
c         4.51    1.94% elim
c         1.35    0.58% lucky
c         1.05    0.45% subsume
c         0.31    0.13% ternary
c   =================================
c       232.76   92.01% solve
c 
c last line shows process time for solving
c (percentage relative to total process time)
c 
c --- [ statistics ] ---------------------------------------------------------
c 
c chronological:             32089        16.47 %  of conflicts
c conflicts:                194780       836.83    per second
c decisions:                295243      1268.44    per second
c eliminated:                 1284        20.84 %  of all variables
c fixed:                      1080        17.53 %  of all variables
c learned:                  190703        97.91 %  per conflict
c learned_lits:           22560349       100.00 %  learned literals
c minimized:                     0         0.00 %  learned literals
c shrunken:               15803618        70.05 %  learned literals
c minishrunken:            1174431         5.21 %  learned literals
c propagations:           12087996         0.05 M  per second
c reduced:                   96437        49.51 %  per conflict
c rephased:                     19     10251.58    interval
c restarts:                   4329        44.99    interval
c stabilizing:                   4        56.36 %  of conflicts
c substituted:                  15         0.24 %  of all variables
c subsumed:                  95359         2.54 %  of all clauses
c strengthened:              22373         0.60 %  of all clauses
c ternary:                    4310         0.71 %  of resolved
c vivified:                    189         0.01 %  of all clauses
c walked:                        5     38956.00    interval
c weakened:                   2858         3.09    average size
c 
c seconds are measured in process time for solving
c 
c --- [ resources ] ----------------------------------------------------------
c 
c total process time since initialization:       252.97    seconds
c total real time since initialization:          259.31    seconds
c maximum resident set size of process:         1604.74    MB
c 
c --- [ shutting down ] ------------------------------------------------------
c 
c exit 10
WARNING! DIMACS header mismatch: wrong number of variables.
============================[ Problem Statistics ]=============================
|                                                                             |
|  Number of variables:          4041                                         |
|  Number of clauses:          286282                                         |
|  Parse time:                   1.31 s                                       |
|  Simplification time:          0.03 s                                       |
|                                                                             |
============================[ Search Statistics ]====================================================
| Conflicts |          ORIGINAL         |          LEARNT          | Num Sols |      SUBGRAPHS      |
|           |    Vars  Clauses Literals |    Limit  Clauses Lit/Cl |          | Canonical Noncanon. |
=====================================================================================================
|       108 |    3931   286290 22076832 |     2000      108     72 |        0 |        14         8 |
|       261 |    3931   286293 22076859 |     2000      261     56 |        0 |        27        11 |
|       495 |    3931   286302 22076925 |     2000      495     50 |        0 |        36        20 |
|       835 |    3931   286305 22077071 |     2000      835     52 |        0 |        43        23 |
|      1681 |    3931   286645 22081519 |     2000     1681     46 |        0 |        77       363 |
|      2447 |    3931   286652 22081583 |     3600     1447     27 |        0 |        81       370 |
|      3609 |    3931   286675 22081876 |     3600     2609     40 |        0 |        94       393 |
|      5347 |    3931   286705 22082324 |     5003     2550     31 |        0 |       117       423 |
|      7938 |    3931   286734 22082633 |     6305     2643     23 |        0 |       125       452 |
|     11833 |    3931   286785 22083561 |     7557     3390     23 |        0 |       138       503 |
|     17764 |    3931   286950 22086203 |     8778     5542     28 |        0 |       158       668 |
|     26486 |    3931   287023 22087458 |     9996     9882     41 |        0 |       184       741 |
|     39525 |    3931   287088 22088599 |    12408    12333     42 |        0 |       203       806 |
|     59179 |    3931   287281 22091481 |    16012    11591     30 |        0 |       273       999 |
|     88533 |    3931   287443 22093492 |    19608    15141     32 |        0 |       323      1161 |
|    132532 |    3900   287653 22097044 |    24406    16338     26 |        0 |       396      1371 |
|    198345 |    3894   287782 22099834 |    30407    15152     17 |        0 |       429      1500 |
=====================================================================================================
Number of solutions   : 0
Canonical subgraphs   : 462            (2 /sec)
          order  3    : 1              (166667 /sec)
          order  4    : 1              (500000 /sec)
          order  5    : 1              (250000 /sec)
          order  6    : 1              (55556 /sec)
          order  7    : 1              (8621 /sec)
          order  8    : 1              (1006 /sec)
          order  9    : 1              (106 /sec)
          order 10    : 3              (19 /sec)
          order 11    : 7              (8 /sec)
          order 12    : 16             (4 /sec)
          order 13    : 27             (2 /sec)
          order 14    : 198            (2 /sec)
          order 15    : 133            (2 /sec)
          order 16    : 51             (2 /sec)
          order 17    : 17             (2 /sec)
          order 18    : 3              (3 /sec)
          order 19    : 0              (-nan /sec)
          order 20    : 0              (-nan /sec)
          order 21    : 0              (-nan /sec)
          order 22    : 0              (-nan /sec)
Noncanonical subgraphs: 1630           (246 /sec)
          order  3    : 0              (-nan /sec)
          order  4    : 0              (-nan /sec)
          order  5    : 0              (-nan /sec)
          order  6    : 0              (-nan /sec)
          order  7    : 0              (-nan /sec)
          order  8    : 0              (-nan /sec)
          order  9    : 0              (-nan /sec)
          order 10    : 0              (-nan /sec)
          order 11    : 0              (-nan /sec)
          order 12    : 0              (-nan /sec)
          order 13    : 65             (40984 /sec)
          order 14    : 505            (5339 /sec)
          order 15    : 984            (300 /sec)
          order 16    : 33             (170 /sec)
          order 17    : 39             (14 /sec)
          order 18    : 4              (23 /sec)
          order 19    : 0              (-nan /sec)
          order 20    : 0              (-nan /sec)
          order 21    : 0              (-nan /sec)
Canonicity checking   : 243.996 s
Noncanonicity checking: 6.62976 s
Total canonicity time : 250.626 s
database reductions   : 26
restarts              : 574
conflicts             : 248167         (748 /sec)
decisions             : 327212         (0.00 % random) (987 /sec)
propagations          : 12283194       (37047 /sec)
conflict literals     : 13414274       (57.09 % deleted)
actual reward         : 0.265282
Memory used           : 281.00 MB
CPU time              : 331.557 s

UNSATISFIABLE
